NAME : pr264.tour
COMMENT : Optimum tour for pr264.tsp (Length 49135)
TYPE : TOUR
DIMENSION : 264
TOUR_SECTION
207
190
191
192
136
135
195
194
193
205
204
258
257
260
259
203
200
201
202
198
197
196
199
133
134
130
131
132
88
87
85
84
2
3
4
5
6
82
83
86
89
90
91
80
81
7
8
9
10
11
12
78
79
92
93
94
95
96
97
76
77
13
14
15
16
17
18
74
75
98
99
100
101
102
103
72
73
19
20
21
22
23
24
70
71
104
105
106
107
108
109
68
69
25
26
27
28
29
30
66
67
110
111
112
113
114
115
64
65
31
32
33
34
35
36
62
63
116
117
118
129
119
120
121
60
61
37
38
39
1
40
41
42
43
59
44
45
46
47
48
49
57
58
122
123
124
125
126
127
55
56
50
51
52
53
54
128
150
154
153
152
151
231
230
229
234
232
233
236
235
228
227
157
156
155
149
158
159
160
226
161
162
148
147
146
145
165
164
163
225
224
238
237
264
240
239
223
222
168
167
166
144
143
171
170
169
221
220
242
241
244
243
219
218
174
173
172
142
141
175
176
177
216
217
245
246
247
248
214
215
178
179
180
140
139
181
182
183
212
213
249
250
251
252
210
211
184
185
186
138
137
187
188
189
208
209
253
254
263
262
261
255
256
206
-1
EOF
